n_potions = 66;
alchemy = [4, 5, 4, 2, 3, 5, 5, 2, 5, 3, 2, 4, 5, 1, 1, 4, 3, 3, 3, 2, 3, 3, 2, 4, 1, 2, 4, 4, 5, 5, 3, 3, 3, 2, 2, 5, 4, 4, 1, 4, 3, 4, 3, 2, 3, 2, 4, 5, 2, 5, 4, 1, 1, 2, 2, 5, 5, 4, 5, 2, 3, 4, 5, 4, 2, 3];
n_days = 12;
min_potions = 5;
max_potions = 7;
min_alchemists = 5;
max_alchemists = 35;
prereqs = [|7,1
|8,6
|10,5
|12,7
|13,8
|17,10
|17,11
|18,10
|18,11
|19,8
|19,11
|20,9
|21,10
|23,17
|23,18
|24,19
|26,13
|26,23
|30,9
|32,9
|33,27
|34,17
|35,9
|35,18
|37,20
|37,30
|37,35
|38,33
|39,35
|41,17
|41,18
|44,16
|45,38
|46,37
|47,42
|48,34
|49,32
|50,43
|53,47
|55,38
|56,51
|57,39
|57,34
|58,28
|59,55
|61,48
|61,55
|62,31
|63,48
|65,59
|];
